p wcnf 120 60 61 
1 65 5 0 
1 -116 19 0 
1 6 116 0 
1 -70 -15 0 
1 50 68 0 
1 23 -39 0 
1 -38 112 0 
1 -40 103 0 
1 -98 -93 0 
1 11 -75 0 
1 -25 -65 0 
1 35 -10 0 
1 55 -98 0 
1 94 36 0 
1 -89 -88 0 
1 113 106 0 
1 88 -5 0 
1 -52 38 0 
1 24 23 0 
1 -100 66 0 
1 -114 -15 0 
1 53 -97 0 
1 -51 -102 0 
1 -92 61 0 
1 -56 -63 0 
1 84 85 0 
1 117 83 0 
1 56 46 0 
1 -25 8 0 
1 27 37 0 
1 -55 112 0 
1 5 28 0 
1 69 -91 0 
1 -48 -51 0 
1 -96 21 0 
1 -98 -15 0 
1 -111 15 0 
1 115 -15 0 
1 49 -108 0 
1 17 20 0 
1 120 12 0 
1 -39 69 0 
1 -1 -111 0 
1 -55 96 0 
1 13 26 0 
1 65 -60 0 
1 47 -87 0 
1 -105 80 0 
1 96 -104 0 
1 -9 18 0 
1 -73 -106 0 
1 -103 83 0 
1 40 -12 0 
1 -48 -77 0 
1 -9 91 0 
1 -110 -87 0 
1 20 -73 0 
1 60 97 0 
1 -89 -36 0 
1 113 -54 0 
